NAME : lr102.1487570.tour
COMMENT : Cost = 0_1487570
COMMENT : Found by LKH [Keld Helsgaun] Fri Sep 15 17:42:01 2017
TYPE : TOUR
DIMENSION : 127
TOUR_SECTION
1
51
34
31
52
10
67
109
2
118
63
89
9
47
18
94
60
103
127
28
102
70
77
80
69
123
84
46
62
85
6
61
108
90
116
40
24
68
111
56
5
26
27
124
37
105
48
19
121
29
30
79
35
36
4
107
78
115
64
65
91
11
110
32
113
74
23
104
73
55
25
81
13
126
66
72
82
21
33
71
122
93
99
86
17
87
92
101
38
120
15
45
39
44
3
59
112
96
43
16
42
76
57
75
22
117
53
8
12
20
50
49
106
83
125
95
97
100
7
114
41
54
119
88
58
98
14
-1
EOF
